2332, 0, 0, 56, 2
2333, 0, 1, 97, 0
2334, 0, 2, 50, 3
2335, 0, 3, 77, 1
2336, 1, 0, 99, 1
2337, 1, 1, 96, 3
2338, 1, 2, 74, 2
2339, 1, 3, 43, 0
2340, 2, 0, 42, 0
2341, 2, 1, 93, 3
2342, 2, 2, 61, 2
2343, 2, 3, 72, 1
2344, 3, 0, 70, 0
2345, 3, 1, 87, 1
2346, 3, 2, 70, 2
2347, 3, 3, 90, 3
